
Gurobi 11.0.3 (linux64) logging started Fri Nov 22 21:16:37 2024

Set parameter LogFile to value "/home/yihong/Coding/OR_SUC/SUC_results_bigM100000_thread4/case24_ieee_rts_theta0.1_epsilon0.025_gurobi_seed600000_num_gen100_N_WDR100_load_scaling_factor1_proposed_T12quadra_cost.txt"
Set parameter TimeLimit to value 3600
Gurobi Optimizer version 11.0.3 build v11.0.3rc0 (linux64 - "Ubuntu 20.04.6 LTS")

CPU model: AMD EPYC 7532 32-Core Processor, instruction set [SSE2|AVX|AVX2]
Thread count: 64 physical cores, 128 logical processors, using up to 4 threads

Optimize a model with 25722 rows, 14981 columns and 353498 nonzeros
Model fingerprint: 0x6e53ab18
Model has 1200 quadratic constraints
Variable types: 13781 continuous, 1200 integer (1200 binary)
Coefficient statistics:
  Matrix range     [3e-04, 2e+03]
  QMatrix range    [2e-03, 8e-03]
  QLMatrix range   [1e-03, 6e+01]
  Objective range  [1e+00, 1e+00]
  Bounds range     [1e+00, 1e+00]
  RHS range        [1e+00, 9e+03]
Presolve removed 20953 rows and 6609 columns
Presolve time: 0.11s
Presolved: 4769 rows, 8372 columns, 31178 nonzeros
Presolved model has 1200 quadratic constraint(s)
Variable types: 7172 continuous, 1200 integer (1200 binary)

Root relaxation: objective 1.927710e+04, 3580 iterations, 0.06 seconds (0.07 work units)

    Nodes    |    Current Node    |     Objective Bounds      |     Work
 Expl Unexpl |  Obj  Depth IntInf | Incumbent    BestBd   Gap | It/Node Time

     0     0 19277.1017    0   12          - 19277.1017      -     -    0s
     0     0 241872.455    0  284          - 241872.455      -     -    0s
     0     0 369505.858    0  170          - 369505.858      -     -    0s
     0     0 369511.801    0  170          - 369511.801      -     -    0s
     0     0 369589.388    0  108          - 369589.388      -     -    0s
     0     0 369590.634    0  108          - 369590.634      -     -    0s
     0     0 369590.634    0  108          - 369590.634      -     -    0s
     0     0 369590.724    0  108          - 369590.724      -     -    0s
     0     2 369590.724    0  108          - 369590.724      -     -    1s
H  231   258                    370378.38383 369599.020  0.21%  11.0    2s
*  231   258              67    370378.38383 369599.020  0.21%  11.3    2s
H  407   262                    369608.13602 369599.020  0.00%  14.0    2s
*  407   262              49    369608.13602 369599.020  0.00%  14.1    2s

Cutting planes:
  Gomory: 86
  Implied bound: 332
  MIR: 45
  Flow cover: 94
  RLT: 13

Explored 471 nodes (16132 simplex iterations) in 3.31 seconds (3.24 work units)
Thread count was 4 (of 128 available processors)

Solution count 3: 369608 369608 370378 

Optimal solution found (tolerance 1.00e-03)
Warning: max constraint violation (2.0075e-07) exceeds tolerance
Best objective 3.696081360244e+05, best bound 3.695990201576e+05, gap 0.0025%
